c turning on binary mode checking
c parsing input formula with 259840 variables and 1039934 clauses
c finished parsing, read 23704636 bytes from proof file
c detected empty clause; start verification via backward checking
c 18380 of 1039934 clauses in core                            
c 23916 of 608618 lemmas in core using 203781 resolution steps
c 0 RAT lemmas in core; 1670 redundant literals in core lemmas
s VERIFIED
c verification time: 3.129 seconds
